p edge 40 237
e 1 5
e 1 7
e 1 10
e 1 14
e 1 19
e 1 21
e 1 22
e 1 25
e 1 27
e 1 28
e 1 29
e 1 31
e 1 33
e 1 34
e 1 40
e 2 17
e 2 19
e 2 20
e 2 21
e 2 25
e 2 26
e 2 29
e 2 31
e 2 32
e 2 34
e 2 35
e 3 4
e 3 6
e 3 9
e 3 11
e 3 14
e 3 15
e 3 20
e 3 23
e 3 26
e 3 28
e 3 29
e 3 31
e 3 34
e 3 39
e 4 11
e 4 12
e 4 18
e 4 22
e 4 27
e 4 28
e 4 29
e 4 32
e 4 39
e 5 10
e 5 18
e 5 22
e 5 23
e 5 25
e 5 28
e 5 31
e 5 32
e 5 36
e 5 37
e 5 40
e 6 12
e 6 15
e 6 17
e 6 19
e 6 22
e 6 29
e 6 30
e 7 14
e 7 16
e 7 21
e 7 23
e 7 24
e 7 31
e 7 37
e 7 39
e 8 9
e 8 15
e 8 18
e 8 28
e 8 31
e 8 34
e 8 35
e 8 40
e 9 14
e 9 16
e 9 22
e 9 26
e 9 27
e 9 29
e 9 33
e 9 35
e 9 36
e 9 37
e 9 38
e 10 13
e 10 15
e 10 20
e 10 23
e 10 31
e 10 39
e 10 40
e 11 12
e 11 15
e 11 18
e 11 22
e 11 24
e 11 25
e 11 28
e 11 29
e 11 32
e 11 34
e 11 35
e 12 13
e 12 16
e 12 25
e 12 26
e 12 28
e 12 34
e 12 38
e 13 14
e 13 15
e 13 17
e 13 18
e 13 21
e 13 33
e 13 37
e 14 15
e 14 20
e 14 22
e 14 26
e 14 28
e 14 33
e 14 37
e 15 23
e 15 25
e 15 34
e 16 18
e 16 21
e 16 25
e 16 35
e 16 36
e 16 37
e 16 40
e 17 22
e 17 23
e 17 25
e 17 26
e 17 31
e 17 39
e 18 19
e 18 21
e 18 23
e 18 30
e 18 33
e 18 36
e 18 37
e 19 31
e 19 36
e 19 37
e 19 38
e 19 40
e 20 23
e 20 31
e 20 36
e 20 40
e 21 27
e 21 29
e 21 30
e 21 34
e 21 36
e 21 37
e 21 40
e 22 24
e 22 25
e 22 26
e 22 27
e 22 29
e 22 34
e 22 35
e 22 38
e 23 26
e 23 29
e 23 31
e 23 34
e 23 35
e 23 36
e 24 25
e 24 26
e 24 29
e 24 31
e 24 33
e 24 34
e 24 35
e 24 36
e 24 39
e 25 26
e 25 30
e 25 32
e 25 36
e 26 27
e 26 28
e 26 34
e 26 36
e 26 39
e 26 40
e 27 32
e 27 34
e 27 35
e 27 37
e 27 40
e 28 31
e 28 36
e 28 39
e 28 40
e 30 32
e 30 33
e 30 34
e 30 35
e 30 38
e 30 40
e 31 32
e 31 35
e 31 40
e 32 33
e 32 35
e 32 36
e 33 37
e 33 40
e 34 35
e 34 36
e 34 38
e 34 39
e 34 40
e 35 38
e 36 38
e 37 38
e 38 40
